Maximize
F - f1 - f2

Subject to
F - 0y99 - 0y118 - 4y158 - 2y133 - 4y141 - 8y14 - 4y85 - 2y4 - 8y8 - 4y30 - 6y107 - 4y182 - 6y156 - 6y37 - 2y109 - 8y31 - 4y23 - 8y177 - 4y112 - 4y183 - 4y131 - 4y36 - 4y77 - 4y22 - 8y65 = 0
f1 - 0.005135s99 - 0.005135s118 - 0.005135s158 - 0.005135s133 - 0.005135s141 - 0.005135s14 - 0.005135s85 - 0.005135s4 - 0.005135s8 - 0.005135s30 - 0.005135s107 - 0.005135s182 - 0.005135s156 - 0.005135s37 - 0.005135s109 - 0.005135s31 - 0.005135s23 - 0.005135s177 - 0.005135s112 - 0.005135s183 - 0.005135s131 - 0.005135s36 - 0.005135s77 - 0.005135s22 - 0.005135s65  = 0
f2 - 3.78y99 - 3.72y118 - 4.59y158 - 3.19y133 - 2.09y141 - 2.23y14 - 1.95y85 - 1.55y4 - 2.06y8 - 1.37y30 - 2.13y107 - 2.19y182 - 1.34y156 - 1.94y37 - 2.04y109 - 2.23y31 - 1.87y23 - 2.30y177 - 1.08y112 - 0.71y183 - 0.64y131 - 2.71y36 - 2.13y77 - 0.03y22 - 0.08y65 = 0

x17x141x1 + x17x14x1 + x17x85x1 + x17x4x1 + x17x107x1 + x17x182x1 + x17x156x1 + x17x23x1 + x17x112x1 + x17x131x1 + x17x36x1 + x17x77x1 + x17x22x1 + x17x65x1 
<= 2
x175x85x1 + x175x4x1 + x175x107x1 + x175x182x1 + x175x156x1 + x175x23x1 + x175x112x1 + x175x131x1 + x175x36x1 + x175x77x1 + x175x22x1 + x175x65x1 
<= 1
x138x85x1 + x138x4x1 + x138x107x1 + x138x182x1 + x138x156x1 + x138x23x1 + x138x112x1 + x138x131x1 + x138x36x1 + x138x77x1 + x138x22x1 + x138x65x1 
<= 1
x106x141x1 + x106x14x1 + x106x85x1 + x106x4x1 + x106x107x1 + x106x182x1 + x106x156x1 + x106x23x1 + x106x112x1 + x106x131x1 + x106x36x1 + x106x77x1 + x106x22x1 + x106x65x1 
<= 1
x118x141x1 + x118x14x1 + x118x85x1 + x118x4x1 + x118x107x1 + x118x182x1 + x118x156x1 + x118x23x1 + x118x112x1 + x118x131x1 + x118x36x1 + x118x77x1 + x118x22x1 + x118x65x1 
<= 1

x46x37x2 + x46x177x2 + x46x112x2 + x46x183x2 + x46x77x2 
<= 2
x175x37x2 + x175x177x2 + x175x112x2 + x175x183x2 + x175x77x2 
<= 1
x70x37x2 + x70x177x2 + x70x112x2 + x70x183x2 + x70x77x2 
<= 2
x150x37x2 + x150x177x2 + x150x112x2 + x150x183x2 + x150x77x2 
<= 1
x138x85x3 + x138x4x3 + x138x8x3 + x138x30x3 + x138x109x3 + x138x31x3 + x138x183x3 + x138x22x3 + x138x65x3 
<= 1
x106x85x3 + x106x4x3 + x106x8x3 + x106x30x3 + x106x109x3 + x106x31x3 + x106x183x3 + x106x22x3 + x106x65x3 
<= 1
x99x99x3 + x99x118x3 + x99x133x3 + x99x85x3 + x99x4x3 + x99x8x3 + x99x30x3 + x99x109x3 + x99x31x3 + x99x183x3 + x99x22x3 + x99x65x3 
<= 2
x150x133x3 + x150x85x3 + x150x4x3 + x150x8x3 + x150x30x3 + x150x109x3 + x150x31x3 + x150x183x3 + x150x22x3 + x150x65x3 
<= 1
x118x133x3 + x118x85x3 + x118x4x3 + x118x8x3 + x118x30x3 + x118x109x3 + x118x31x3 + x118x183x3 + x118x22x3 + x118x65x3 
<= 1



x99x99x3 
- x99x0x3
- x99x85x3 - x99x4x3 - x99x8x3 - x99x30x3 - x99x109x3 - x99x31x3 - x99x183x3 - x99x22x3 - x99x65x3 
= 0


- x118x141x1 - x118x14x1 - x118x85x1 - x118x4x1 - x118x107x1 - x118x182x1 - x118x156x1 - x118x23x1 - x118x112x1 - x118x131x1 - x118x36x1 - x118x77x1 - x118x22x1 - x118x65x1 
= 0

x99x118x3 
- x118x0x3
- x118x85x3 - x118x4x3 - x118x8x3 - x118x30x3 - x118x109x3 - x118x31x3 - x118x183x3 - x118x22x3 - x118x65x3 
= 0


- x158x85x1 - x158x4x1 - x158x107x1 - x158x182x1 - x158x156x1 - x158x23x1 - x158x112x1 - x158x131x1 - x158x36x1 - x158x77x1 - x158x22x1 - x158x65x1 
= 0





x99x133x3 + x150x133x3 + x118x133x3 
- x133x0x3
- x133x85x3 - x133x4x3 - x133x8x3 - x133x30x3 - x133x109x3 - x133x31x3 - x133x183x3 - x133x22x3 - x133x65x3 
= 0

x17x141x1 + x106x141x1 + x118x141x1 + x118x141x1 
- x141x0x1
- x141x85x1 - x141x4x1 - x141x107x1 - x141x182x1 - x141x156x1 - x141x23x1 - x141x112x1 - x141x131x1 - x141x36x1 - x141x77x1 - x141x22x1 - x141x65x1 
= 0



x17x14x1 + x106x14x1 + x118x14x1 + x118x14x1 
- x14x0x1
- x14x4x1 - x14x107x1 - x14x182x1 - x14x156x1 - x14x23x1 - x14x112x1 - x14x131x1 - x14x36x1 - x14x77x1 - x14x22x1 - x14x65x1 
= 0



x17x85x1 + x175x85x1 + x138x85x1 + x106x85x1 + x118x85x1 + x118x85x1 + x158x85x1 + x141x85x1 
- x85x0x1
- x85x107x1 - x85x182x1 - x85x156x1 - x85x23x1 - x85x112x1 - x85x131x1 - x85x36x1 - x85x77x1 - x85x22x1 - x85x65x1 
= 0

x138x85x3 + x106x85x3 + x99x85x3 + x150x85x3 + x118x85x3 + x99x85x3 + x118x85x3 + x133x85x3 
- x85x0x3
- x85x30x3 - x85x109x3 - x85x31x3 - x85x183x3 - x85x22x3 - x85x65x3 
= 0

x17x4x1 + x175x4x1 + x138x4x1 + x106x4x1 + x118x4x1 + x118x4x1 + x158x4x1 + x141x4x1 + x14x4x1 
- x4x0x1
- x4x107x1 - x4x182x1 - x4x156x1 - x4x23x1 - x4x112x1 - x4x131x1 - x4x36x1 - x4x77x1 - x4x22x1 - x4x65x1 
= 0

x138x4x3 + x106x4x3 + x99x4x3 + x150x4x3 + x118x4x3 + x99x4x3 + x118x4x3 + x133x4x3 
- x4x0x3
- x4x8x3 - x4x30x3 - x4x109x3 - x4x31x3 - x4x183x3 - x4x22x3 - x4x65x3 
= 0



x138x8x3 + x106x8x3 + x99x8x3 + x150x8x3 + x118x8x3 + x99x8x3 + x118x8x3 + x133x8x3 + x4x8x3 
- x8x0x3
- x8x109x3 - x8x31x3 - x8x183x3 - x8x22x3 - x8x65x3 
= 0



x138x30x3 + x106x30x3 + x99x30x3 + x150x30x3 + x118x30x3 + x99x30x3 + x118x30x3 + x133x30x3 + x85x30x3 + x4x30x3 
- x30x0x3
- x30x109x3 - x30x31x3 - x30x183x3 - x30x22x3 - x30x65x3 
= 0

x17x107x1 + x175x107x1 + x138x107x1 + x106x107x1 + x118x107x1 + x118x107x1 + x158x107x1 + x141x107x1 + x14x107x1 + x85x107x1 + x4x107x1 
- x107x0x1
- x107x182x1 - x107x23x1 - x107x112x1 - x107x131x1 - x107x36x1 - x107x77x1 - x107x22x1 - x107x65x1 
= 0



x17x182x1 + x175x182x1 + x138x182x1 + x106x182x1 + x118x182x1 + x118x182x1 + x158x182x1 + x141x182x1 + x14x182x1 + x85x182x1 + x4x182x1 + x107x182x1 
- x182x0x1
- x182x23x1 - x182x112x1 - x182x131x1 - x182x36x1 - x182x77x1 - x182x22x1 - x182x65x1 
= 0



x17x156x1 + x175x156x1 + x138x156x1 + x106x156x1 + x118x156x1 + x118x156x1 + x158x156x1 + x141x156x1 + x14x156x1 + x85x156x1 + x4x156x1 
- x156x0x1
- x156x23x1 - x156x112x1 - x156x131x1 - x156x36x1 - x156x77x1 - x156x22x1 - x156x65x1 
= 0




x46x37x2 + x175x37x2 + x70x37x2 + x150x37x2 
- x37x0x2
- x37x177x2 - x37x77x2 
= 0




x138x109x3 + x106x109x3 + x99x109x3 + x150x109x3 + x118x109x3 + x99x109x3 + x118x109x3 + x133x109x3 + x85x109x3 + x4x109x3 + x8x109x3 + x30x109x3 
- x109x0x3
- x109x22x3 - x109x65x3 
= 0



x138x31x3 + x106x31x3 + x99x31x3 + x150x31x3 + x118x31x3 + x99x31x3 + x118x31x3 + x133x31x3 + x85x31x3 + x4x31x3 + x8x31x3 + x30x31x3 
- x31x0x3
- x31x22x3 - x31x65x3 
= 0

x17x23x1 + x175x23x1 + x138x23x1 + x106x23x1 + x118x23x1 + x118x23x1 + x158x23x1 + x141x23x1 + x14x23x1 + x85x23x1 + x4x23x1 + x107x23x1 + x182x23x1 + x156x23x1 
- x23x0x1
- x23x36x1 - x23x77x1 - x23x22x1 - x23x65x1 
= 0




x46x177x2 + x175x177x2 + x70x177x2 + x150x177x2 + x37x177x2 
- x177x0x2
- x177x77x2 
= 0


x17x112x1 + x175x112x1 + x138x112x1 + x106x112x1 + x118x112x1 + x118x112x1 + x158x112x1 + x141x112x1 + x14x112x1 + x85x112x1 + x4x112x1 + x107x112x1 + x182x112x1 + x156x112x1 
- x112x0x1
- x112x22x1 - x112x65x1 
= 0
x46x112x2 + x175x112x2 + x70x112x2 + x150x112x2 
- x112x0x2

= 0



x46x183x2 + x175x183x2 + x70x183x2 + x150x183x2 
- x183x0x2

= 0
x138x183x3 + x106x183x3 + x99x183x3 + x150x183x3 + x118x183x3 + x99x183x3 + x118x183x3 + x133x183x3 + x85x183x3 + x4x183x3 + x8x183x3 + x30x183x3 
- x183x0x3
- x183x22x3 - x183x65x3 
= 0

x17x131x1 + x175x131x1 + x138x131x1 + x106x131x1 + x118x131x1 + x118x131x1 + x158x131x1 + x141x131x1 + x14x131x1 + x85x131x1 + x4x131x1 + x107x131x1 + x182x131x1 + x156x131x1 
- x131x0x1
- x131x22x1 - x131x65x1 
= 0



x17x36x1 + x175x36x1 + x138x36x1 + x106x36x1 + x118x36x1 + x118x36x1 + x158x36x1 + x141x36x1 + x14x36x1 + x85x36x1 + x4x36x1 + x107x36x1 + x182x36x1 + x156x36x1 + x23x36x1 
- x36x0x1

= 0



x17x77x1 + x175x77x1 + x138x77x1 + x106x77x1 + x118x77x1 + x118x77x1 + x158x77x1 + x141x77x1 + x14x77x1 + x85x77x1 + x4x77x1 + x107x77x1 + x182x77x1 + x156x77x1 + x23x77x1 
- x77x0x1
- x77x22x1 - x77x65x1 
= 0
x46x77x2 + x175x77x2 + x70x77x2 + x150x77x2 + x37x77x2 + x177x77x2 
- x77x0x2

= 0


x17x22x1 + x175x22x1 + x138x22x1 + x106x22x1 + x118x22x1 + x118x22x1 + x158x22x1 + x141x22x1 + x14x22x1 + x85x22x1 + x4x22x1 + x107x22x1 + x182x22x1 + x156x22x1 + x23x22x1 + x112x22x1 + x131x22x1 + x77x22x1 
- x22x0x1

= 0

x138x22x3 + x106x22x3 + x99x22x3 + x150x22x3 + x118x22x3 + x99x22x3 + x118x22x3 + x133x22x3 + x85x22x3 + x4x22x3 + x8x22x3 + x30x22x3 + x109x22x3 + x31x22x3 + x183x22x3 
- x22x0x3

= 0

x17x65x1 + x175x65x1 + x138x65x1 + x106x65x1 + x118x65x1 + x118x65x1 + x158x65x1 + x141x65x1 + x14x65x1 + x85x65x1 + x4x65x1 + x107x65x1 + x182x65x1 + x156x65x1 + x23x65x1 + x112x65x1 + x131x65x1 + x77x65x1 
- x65x0x1

= 0

x138x65x3 + x106x65x3 + x99x65x3 + x150x65x3 + x118x65x3 + x99x65x3 + x118x65x3 + x133x65x3 + x85x65x3 + x4x65x3 + x8x65x3 + x30x65x3 + x109x65x3 + x31x65x3 + x183x65x3 
- x65x0x3

= 0

2y99 - x99x99x3 = 0
1y118 = 0
1y118 - x99x118x3 = 0
2y158 = 0
2y133 - x99x133x3 - x150x133x3 - x118x133x3 = 0
2y141 - x17x141x1 - x106x141x1 - x118x141x1 - x118x141x1 = 0
2y14 - x17x14x1 - x106x14x1 - x118x14x1 - x118x14x1 = 0
1y85 - x17x85x1 - x175x85x1 - x138x85x1 - x106x85x1 - x118x85x1 - x118x85x1 - x158x85x1 - x141x85x1 = 0
1y85 - x138x85x3 - x106x85x3 - x99x85x3 - x150x85x3 - x118x85x3 - x99x85x3 - x118x85x3 - x133x85x3 = 0
1y4 - x17x4x1 - x175x4x1 - x138x4x1 - x106x4x1 - x118x4x1 - x118x4x1 - x158x4x1 - x141x4x1 - x14x4x1 = 0
1y4 - x138x4x3 - x106x4x3 - x99x4x3 - x150x4x3 - x118x4x3 - x99x4x3 - x118x4x3 - x133x4x3 = 0
2y8 - x138x8x3 - x106x8x3 - x99x8x3 - x150x8x3 - x118x8x3 - x99x8x3 - x118x8x3 - x133x8x3 - x4x8x3 = 0
2y30 - x138x30x3 - x106x30x3 - x99x30x3 - x150x30x3 - x118x30x3 - x99x30x3 - x118x30x3 - x133x30x3 - x85x30x3 - x4x30x3 = 0
2y107 - x17x107x1 - x175x107x1 - x138x107x1 - x106x107x1 - x118x107x1 - x118x107x1 - x158x107x1 - x141x107x1 - x14x107x1 - x85x107x1 - x4x107x1 = 0
2y182 - x17x182x1 - x175x182x1 - x138x182x1 - x106x182x1 - x118x182x1 - x118x182x1 - x158x182x1 - x141x182x1 - x14x182x1 - x85x182x1 - x4x182x1 - x107x182x1 = 0
2y156 - x17x156x1 - x175x156x1 - x138x156x1 - x106x156x1 - x118x156x1 - x118x156x1 - x158x156x1 - x141x156x1 - x14x156x1 - x85x156x1 - x4x156x1 = 0
2y37 - x46x37x2 - x175x37x2 - x70x37x2 - x150x37x2 = 0
2y109 - x138x109x3 - x106x109x3 - x99x109x3 - x150x109x3 - x118x109x3 - x99x109x3 - x118x109x3 - x133x109x3 - x85x109x3 - x4x109x3 - x8x109x3 - x30x109x3 = 0
2y31 - x138x31x3 - x106x31x3 - x99x31x3 - x150x31x3 - x118x31x3 - x99x31x3 - x118x31x3 - x133x31x3 - x85x31x3 - x4x31x3 - x8x31x3 - x30x31x3 = 0
2y23 - x17x23x1 - x175x23x1 - x138x23x1 - x106x23x1 - x118x23x1 - x118x23x1 - x158x23x1 - x141x23x1 - x14x23x1 - x85x23x1 - x4x23x1 - x107x23x1 - x182x23x1 - x156x23x1 = 0
2y177 - x46x177x2 - x175x177x2 - x70x177x2 - x150x177x2 - x37x177x2 = 0
1y112 - x17x112x1 - x175x112x1 - x138x112x1 - x106x112x1 - x118x112x1 - x118x112x1 - x158x112x1 - x141x112x1 - x14x112x1 - x85x112x1 - x4x112x1 - x107x112x1 - x182x112x1 - x156x112x1 = 0
1y112 - x46x112x2 - x175x112x2 - x70x112x2 - x150x112x2 = 0
1y183 - x46x183x2 - x175x183x2 - x70x183x2 - x150x183x2 = 0
1y183 - x138x183x3 - x106x183x3 - x99x183x3 - x150x183x3 - x118x183x3 - x99x183x3 - x118x183x3 - x133x183x3 - x85x183x3 - x4x183x3 - x8x183x3 - x30x183x3 = 0
2y131 - x17x131x1 - x175x131x1 - x138x131x1 - x106x131x1 - x118x131x1 - x118x131x1 - x158x131x1 - x141x131x1 - x14x131x1 - x85x131x1 - x4x131x1 - x107x131x1 - x182x131x1 - x156x131x1 = 0
2y36 - x17x36x1 - x175x36x1 - x138x36x1 - x106x36x1 - x118x36x1 - x118x36x1 - x158x36x1 - x141x36x1 - x14x36x1 - x85x36x1 - x4x36x1 - x107x36x1 - x182x36x1 - x156x36x1 - x23x36x1 = 0
1y77 - x17x77x1 - x175x77x1 - x138x77x1 - x106x77x1 - x118x77x1 - x118x77x1 - x158x77x1 - x141x77x1 - x14x77x1 - x85x77x1 - x4x77x1 - x107x77x1 - x182x77x1 - x156x77x1 - x23x77x1 = 0
1y77 - x46x77x2 - x175x77x2 - x70x77x2 - x150x77x2 - x37x77x2 - x177x77x2 = 0
1y22 - x17x22x1 - x175x22x1 - x138x22x1 - x106x22x1 - x118x22x1 - x118x22x1 - x158x22x1 - x141x22x1 - x14x22x1 - x85x22x1 - x4x22x1 - x107x22x1 - x182x22x1 - x156x22x1 - x23x22x1 - x112x22x1 - x131x22x1 - x77x22x1 = 0
1y22 - x138x22x3 - x106x22x3 - x99x22x3 - x150x22x3 - x118x22x3 - x99x22x3 - x118x22x3 - x133x22x3 - x85x22x3 - x4x22x3 - x8x22x3 - x30x22x3 - x109x22x3 - x31x22x3 - x183x22x3 = 0
1y65 - x17x65x1 - x175x65x1 - x138x65x1 - x106x65x1 - x118x65x1 - x118x65x1 - x158x65x1 - x141x65x1 - x14x65x1 - x85x65x1 - x4x65x1 - x107x65x1 - x182x65x1 - x156x65x1 - x23x65x1 - x112x65x1 - x131x65x1 - x77x65x1 = 0
1y65 - x138x65x3 - x106x65x3 - x99x65x3 - x150x65x3 - x118x65x3 - x99x65x3 - x118x65x3 - x133x65x3 - x85x65x3 - x4x65x3 - x8x65x3 - x30x65x3 - x109x65x3 - x31x65x3 - x183x65x3 = 0

s17 - s141 + 6.686129z17z141z1 <= 5.18
s17 - s14 + 6.793774z17z14z1 <= 5.18
s17 - s85 + 6.593413z17z85z1 <= 5.18
s17 - s4 + 6.828469z17z4z1 <= 5.18
s17 - s107 + 6.921104z17z107z1 <= 5.18
s17 - s182 + 6.924139z17z182z1 <= 5.18
s17 - s156 + 6.879768z17z156z1 <= 5.18
s17 - s23 + 6.955548z17z23z1 <= 5.18
s17 - s112 + 6.941515z17z112z1 <= 5.18
s17 - s131 + 6.765927z17z131z1 <= 5.18
s17 - s36 + 6.998210z17z36z1 <= 5.18
s17 - s77 + 7.001688z17z77z1 <= 5.18
s17 - s22 + 7.001150z17z22z1 <= 5.18
s17 - s65 + 7.037090z17z65z1 <= 5.18
s46 - s37 + 7.052346z46z37z2 <= 5.44
s46 - s177 + 7.035397z46z177z2 <= 5.44
s46 - s112 + 7.130451z46z112z2 <= 5.44
s46 - s183 + 7.018297z46z183z2 <= 5.44
s46 - s77 + 7.081918z46z77z2 <= 5.44
s175 - s85 + 7.237788z175z85z1 <= 5.97
s175 - s4 + 7.476402z175z4z1 <= 5.97
s175 - s107 + 7.565745z175z107z1 <= 5.97
s175 - s182 + 7.568659z175z182z1 <= 5.97
s175 - s156 + 7.529908z175z156z1 <= 5.97
s175 - s37 + 7.594342z175z37z2 <= 5.97
s175 - s23 + 7.601306z175z23z1 <= 5.97
s175 - s177 + 7.613554z175z177z2 <= 5.97
s175 - s112 + 7.594628z175z112z1 <= 5.97
s175 - s112 + 7.594628z175z112z2 <= 5.97
s175 - s183 + 7.399509z175z183z2 <= 5.97
s175 - s131 + 7.429077z175z131z1 <= 5.97
s175 - s36 + 7.642830z175z36z1 <= 5.97
s175 - s77 + 7.646499z175z77z1 <= 5.97
s175 - s77 + 7.646499z175z77z2 <= 5.97
s175 - s22 + 7.671103z175z22z1 <= 5.97
s175 - s65 + 7.705253z175z65z1 <= 5.97
s138 - s85 + 7.266966z138z85z1 <= 5.98
s138 - s85 + 7.266966z138z85z3 <= 5.98
s138 - s4 + 7.506459z138z4z1 <= 5.98
s138 - s4 + 7.506459z138z4z3 <= 5.98
s138 - s8 + 7.586576z138z8z3 <= 5.98
s138 - s30 + 7.546304z138z30z3 <= 5.98
s138 - s107 + 7.595104z138z107z1 <= 5.98
s138 - s182 + 7.597933z138z182z1 <= 5.98
s138 - s156 + 7.560080z138z156z1 <= 5.98
s138 - s109 + 7.628712z138z109z3 <= 5.98
s138 - s31 + 7.633688z138z31z3 <= 5.98
s138 - s23 + 7.631050z138z23z1 <= 5.98
s138 - s112 + 7.624841z138z112z1 <= 5.98
s138 - s183 + 7.429401z138z183z3 <= 5.98
s138 - s131 + 7.458939z138z131z1 <= 5.98
s138 - s36 + 7.671206z138z36z1 <= 5.98
s138 - s77 + 7.675941z138z77z1 <= 5.98
s138 - s22 + 7.700669z138z22z1 <= 5.98
s138 - s22 + 7.700669z138z22z3 <= 5.98
s138 - s65 + 7.734937z138z65z1 <= 5.98
s138 - s65 + 7.734937z138z65z3 <= 5.98
s70 - s37 + 7.411743z70z37z2 <= 5.77
s70 - s177 + 7.430729z70z177z2 <= 5.77
s70 - s112 + 7.411606z70z112z2 <= 5.77
s70 - s183 + 7.215258z70z183z2 <= 5.77
s70 - s77 + 7.463825z70z77z2 <= 5.77
s106 - s141 + 7.089942z106z141z1 <= 5.90
s106 - s14 + 7.188112z106z14z1 <= 5.90
s106 - s85 + 7.019778z106z85z1 <= 5.90
s106 - s85 + 7.019778z106z85z3 <= 5.90
s106 - s4 + 7.263413z106z4z1 <= 5.90
s106 - s4 + 7.263413z106z4z3 <= 5.90
s106 - s8 + 7.315022z106z8z3 <= 5.90
s106 - s30 + 7.310338z106z30z3 <= 5.90
s106 - s107 + 7.320440z106z107z1 <= 5.90
s106 - s182 + 7.321171z106z182z1 <= 5.90
s106 - s156 + 7.325221z106z156z1 <= 5.90
s106 - s109 + 7.357595z106z109z3 <= 5.90
s106 - s31 + 7.355427z106z31z3 <= 5.90
s106 - s23 + 7.366733z106z23z1 <= 5.90
s106 - s112 + 7.399174z106z112z1 <= 5.90
s106 - s183 + 7.256774z106z183z3 <= 5.90
s106 - s131 + 7.284707z106z131z1 <= 5.90
s106 - s36 + 7.378372z106z36z1 <= 5.90
s106 - s77 + 7.401418z106z77z1 <= 5.90
s106 - s22 + 7.524343z106z22z1 <= 5.90
s106 - s22 + 7.524343z106z22z3 <= 5.90
s106 - s65 + 7.551858z106z65z1 <= 5.90
s106 - s65 + 7.551858z106z65z3 <= 5.90
s99 - s99 + 6.350000z99z99z3 <= 5.35
s99 - s118 + 6.472383z99z118z3 <= 5.35
s99 - s133 + 6.572810z99z133z3 <= 5.35
s99 - s85 + 6.615498z99z85z3 <= 5.35
s99 - s4 + 6.777966z99z4z3 <= 5.35
s99 - s8 + 6.776041z99z8z3 <= 5.35
s99 - s30 + 6.825628z99z30z3 <= 5.35
s99 - s109 + 6.813081z99z109z3 <= 5.35
s99 - s31 + 6.797214z99z31z3 <= 5.35
s99 - s183 + 6.839989z99z183z3 <= 5.35
s99 - s22 + 7.076941z99z22z3 <= 5.35
s99 - s65 + 7.096786z99z65z3 <= 5.35
s150 - s133 + 7.042446z150z133z3 <= 5.66
s150 - s85 + 6.848248z150z85z3 <= 5.66
s150 - s4 + 7.098620z150z4z3 <= 5.66
s150 - s8 + 7.157062z150z8z3 <= 5.66
s150 - s30 + 7.144214z150z30z3 <= 5.66
s150 - s37 + 7.198579z150z37z2 <= 5.66
s150 - s109 + 7.199725z150z109z3 <= 5.66
s150 - s31 + 7.198620z150z31z3 <= 5.66
s150 - s177 + 7.205416z150z177z2 <= 5.66
s150 - s112 + 7.231181z150z112z2 <= 5.66
s150 - s183 + 7.069930z150z183z2 <= 5.66
s150 - s183 + 7.069930z150z183z3 <= 5.66
s150 - s77 + 7.244207z150z77z2 <= 5.66
s150 - s22 + 7.343233z150z22z3 <= 5.66
s150 - s65 + 7.373045z150z65z3 <= 5.66
s118 - s133 + 6.931702z118z133z3 <= 5.81
s118 - s141 + 7.066989z118z141z1 <= 5.81
s118 - s14 + 7.064610z118z14z1 <= 5.81
s118 - s85 + 7.104238z118z85z1 <= 5.81
s118 - s85 + 7.104238z118z85z3 <= 5.81
s118 - s4 + 7.187496z118z4z1 <= 5.81
s118 - s4 + 7.187496z118z4z3 <= 5.81
s118 - s8 + 7.155913z118z8z3 <= 5.81
s118 - s30 + 7.231234z118z30z3 <= 5.81
s118 - s107 + 7.151141z118z107z1 <= 5.81
s118 - s182 + 7.145700z118z182z1 <= 5.81
s118 - s156 + 7.243555z118z156z1 <= 5.81
s118 - s109 + 7.187496z118z109z3 <= 5.81
s118 - s31 + 7.166146z118z31z3 <= 5.81
s118 - s23 + 7.211452z118z23z1 <= 5.81
s118 - s112 + 7.314678z118z112z1 <= 5.81
s118 - s183 + 7.288214z118z183z3 <= 5.81
s118 - s131 + 7.305503z118z131z1 <= 5.81
s118 - s36 + 7.136058z118z36z1 <= 5.81
s118 - s77 + 7.212065z118z77z1 <= 5.81
s118 - s22 + 7.492161z118z22z1 <= 5.81
s118 - s22 + 7.492161z118z22z3 <= 5.81
s118 - s65 + 7.506549z118z65z1 <= 5.81
s118 - s65 + 7.506549z118z65z3 <= 5.81
s99 - s85 + 7.615498z99z85z3 <= 6.35
s99 - s4 + 7.777966z99z4z3 <= 6.35
s99 - s8 + 7.776041z99z8z3 <= 6.35
s99 - s30 + 7.825628z99z30z3 <= 6.35
s99 - s109 + 7.813081z99z109z3 <= 6.35
s99 - s31 + 7.797214z99z31z3 <= 6.35
s99 - s183 + 7.839989z99z183z3 <= 6.35
s99 - s22 + 8.076941z99z22z3 <= 6.35
s99 - s65 + 8.096786z99z65z3 <= 6.35
s118 - s141 + 7.873421z118z141z1 <= 6.62
s118 - s14 + 7.871042z118z14z1 <= 6.62
s118 - s85 + 7.910669z118z85z1 <= 6.62
s118 - s85 + 7.910669z118z85z3 <= 6.62
s118 - s4 + 7.993928z118z4z1 <= 6.62
s118 - s4 + 7.993928z118z4z3 <= 6.62
s118 - s8 + 7.962345z118z8z3 <= 6.62
s118 - s30 + 8.037665z118z30z3 <= 6.62
s118 - s107 + 7.957573z118z107z1 <= 6.62
s118 - s182 + 7.952131z118z182z1 <= 6.62
s118 - s156 + 8.049987z118z156z1 <= 6.62
s118 - s109 + 7.993928z118z109z3 <= 6.62
s118 - s31 + 7.972578z118z31z3 <= 6.62
s118 - s23 + 8.017883z118z23z1 <= 6.62
s118 - s112 + 8.121110z118z112z1 <= 6.62
s118 - s183 + 8.094646z118z183z3 <= 6.62
s118 - s131 + 8.111935z118z131z1 <= 6.62
s118 - s36 + 7.942490z118z36z1 <= 6.62
s118 - s77 + 8.018497z118z77z1 <= 6.62
s118 - s22 + 8.298594z118z22z1 <= 6.62
s118 - s22 + 8.298594z118z22z3 <= 6.62
s118 - s65 + 8.312981z118z65z1 <= 6.62
s118 - s65 + 8.312981z118z65z3 <= 6.62
s158 - s85 + 7.470157z158z85z1 <= 6.08
s158 - s4 + 7.602728z158z4z1 <= 6.08
s158 - s107 + 7.572161z158z107z1 <= 6.08
s158 - s182 + 7.566621z158z182z1 <= 6.08
s158 - s156 + 7.660957z158z156z1 <= 6.08
s158 - s23 + 7.632489z158z23z1 <= 6.08
s158 - s112 + 7.733469z158z112z1 <= 6.08
s158 - s131 + 7.706134z158z131z1 <= 6.08
s158 - s36 + 7.549231z158z36z1 <= 6.08
s158 - s77 + 7.631402z158z77z1 <= 6.08
s158 - s22 + 7.906909z158z22z1 <= 6.08
s158 - s65 + 7.923195z158z65z1 <= 6.08
s133 - s85 + 8.363334z133z85z3 <= 7.09
s133 - s4 + 8.364874z133z4z3 <= 7.09
s133 - s8 + 8.316765z133z8z3 <= 7.09
s133 - s30 + 8.404183z133z30z3 <= 7.09
s133 - s109 + 8.346472z133z109z3 <= 7.09
s133 - s31 + 8.324473z133z31z3 <= 7.09
s133 - s183 + 8.491386z133z183z3 <= 7.09
s133 - s22 + 8.666001z133z22z3 <= 7.09
s133 - s65 + 8.677159z133z65z3 <= 7.09
s141 - s85 + 8.382856z141z85z1 <= 7.29
s141 - s4 + 8.466005z141z4z1 <= 7.29
s141 - s107 + 8.526737z141z107z1 <= 7.29
s141 - s182 + 8.528979z141z182z1 <= 7.29
s141 - s156 + 8.528979z141z156z1 <= 7.29
s141 - s23 + 8.568488z141z23z1 <= 7.29
s141 - s112 + 8.604465z141z112z1 <= 7.29
s141 - s131 + 8.534586z141z131z1 <= 7.29
s141 - s36 + 8.605312z141z36z1 <= 7.29
s141 - s77 + 8.608049z141z77z1 <= 7.29
s141 - s22 + 8.750435z141z22z1 <= 7.29
s141 - s65 + 8.772954z141z65z1 <= 7.29
s14 - s4 + 8.462928z14z4z1 <= 7.34
s14 - s107 + 8.472330z14z107z1 <= 7.34
s14 - s182 + 8.473333z14z182z1 <= 7.34
s14 - s156 + 8.520123z14z156z1 <= 7.34
s14 - s23 + 8.521353z14z23z1 <= 7.34
s14 - s112 + 8.593684z14z112z1 <= 7.34
s14 - s131 + 8.599658z14z131z1 <= 7.34
s14 - s36 + 8.549337z14z36z1 <= 7.34
s14 - s77 + 8.553437z14z77z1 <= 7.34
s14 - s22 + 8.767551z14z22z1 <= 7.34
s14 - s65 + 8.782468z14z65z1 <= 7.34
s85 - s30 + 8.826048z85z30z3 <= 7.53
s85 - s107 + 8.858295z85z107z1 <= 7.53
s85 - s182 + 8.860992z85z182z1 <= 7.53
s85 - s156 + 8.840770z85z156z1 <= 7.53
s85 - s109 + 8.892522z85z109z3 <= 7.53
s85 - s31 + 8.896728z85z31z3 <= 7.53
s85 - s23 + 8.896667z85z23z1 <= 7.53
s85 - s112 + 8.913029z85z112z1 <= 7.53
s85 - s183 + 8.770000z85z183z3 <= 7.53
s85 - s131 + 8.797000z85z131z1 <= 7.53
s85 - s36 + 8.937540z85z36z1 <= 7.53
s85 - s77 + 8.939336z85z77z1 <= 7.53
s85 - s22 + 9.034733z85z22z1 <= 7.53
s85 - s22 + 9.034733z85z22z3 <= 7.53
s85 - s65 + 9.062082z85z65z1 <= 7.53
s85 - s65 + 9.062082z85z65z3 <= 7.53
s4 - s8 + 8.836428z4z8z3 <= 7.72
s4 - s30 + 8.768534z4z30z3 <= 7.72
s4 - s107 + 8.850979z4z107z1 <= 7.72
s4 - s182 + 8.859203z4z182z1 <= 7.72
s4 - s156 + 8.783245z4z156z1 <= 7.72
s4 - s109 + 8.866667z4z109z3 <= 7.72
s4 - s31 + 8.888786z4z31z3 <= 7.72
s4 - s23 + 8.855973z4z23z1 <= 7.72
s4 - s112 + 8.859203z4z112z1 <= 7.72
s4 - s183 + 8.886666z4z183z3 <= 7.72
s4 - s131 + 8.883978z4z131z1 <= 7.72
s4 - s36 + 8.968908z4z36z1 <= 7.72
s4 - s77 + 8.913793z4z77z1 <= 7.72
s4 - s22 + 9.024704z4z22z1 <= 7.72
s4 - s22 + 9.024704z4z22z3 <= 7.72
s4 - s65 + 9.040625z4z65z1 <= 7.72
s4 - s65 + 9.040625z4z65z3 <= 7.72
s8 - s109 + 8.882688z8z109z3 <= 7.84
s8 - s31 + 8.893333z8z31z3 <= 7.84
s8 - s183 + 9.123000z8z183z3 <= 7.84
s8 - s22 + 9.206727z8z22z3 <= 7.84
s8 - s65 + 9.211424z8z65z3 <= 7.84
s30 - s109 + 9.011264z30z109z3 <= 7.87
s30 - s31 + 9.039968z30z31z3 <= 7.87
s30 - s183 + 9.043333z30z183z3 <= 7.87
s30 - s22 + 9.131958z30z22z3 <= 7.87
s30 - s65 + 9.145358z30z65z3 <= 7.87
s107 - s182 + 8.879428z107z182z1 <= 7.87
s107 - s23 + 8.930369z107z23z1 <= 7.87
s107 - s112 + 9.057854z107z112z1 <= 7.87
s107 - s131 + 9.163409z107z131z1 <= 7.87
s107 - s36 + 8.989257z107z36z1 <= 7.87
s107 - s77 + 8.951377z107z77z1 <= 7.87
s107 - s22 + 9.248829z107z22z1 <= 7.87
s107 - s65 + 9.252564z107z65z1 <= 7.87
s182 - s23 + 8.946667z182z23z1 <= 7.88
s182 - s112 + 9.076864z182z112z1 <= 7.88
s182 - s131 + 9.182067z182z131z1 <= 7.88
s182 - s36 + 8.990353z182z36z1 <= 7.88
s182 - s77 + 8.960278z182z77z1 <= 7.88
s182 - s22 + 9.267872z182z22z1 <= 7.88
s182 - s65 + 9.271295z182z65z1 <= 7.88
s156 - s23 + 9.038134z156z23z1 <= 7.92
s156 - s112 + 8.996012z156z112z1 <= 7.92
s156 - s131 + 9.087199z156z131z1 <= 7.92
s156 - s36 + 9.178886z156z36z1 <= 7.92
s156 - s77 + 9.099505z156z77z1 <= 7.92
s156 - s22 + 9.170954z156z22z1 <= 7.92
s156 - s65 + 9.183059z156z65z1 <= 7.92
s37 - s177 + 9.115997z37z177z2 <= 8.05
s37 - s77 + 9.110001z37z77z2 <= 8.05
s109 - s22 + 9.420555z109z22z3 <= 8.06
s109 - s65 + 9.420802z109z65z3 <= 8.06
s31 - s22 + 9.473842z31z22z3 <= 8.08
s31 - s65 + 9.473728z31z65z3 <= 8.08
s23 - s36 + 9.241144z23z36z1 <= 8.09
s23 - s77 + 9.151464z23z77z1 <= 8.09
s23 - s22 + 9.420992z23z22z1 <= 8.09
s23 - s65 + 9.420992z23z65z1 <= 8.09
s177 - s77 + 9.178535z177z77z2 <= 8.13
s112 - s22 + 9.371021z112z22z1 <= 8.18
s112 - s65 + 9.376073z112z65z1 <= 8.18
s183 - s22 + 9.544874z183z22z3 <= 8.27
s183 - s65 + 9.577102z183z65z3 <= 8.27
s131 - s22 + 9.535131z131z22z1 <= 8.29
s131 - s65 + 9.567288z131z65z1 <= 8.29
s77 - s22 + 9.738182z77z22z1 <= 8.36
s77 - s65 + 9.733571z77z65z1 <= 8.36

x17x141x1 - 2z17z141z1 <= 0
x17x14x1 - 2z17z14z1 <= 0
x17x85x1 - 1z17z85z1 <= 0
x17x4x1 - 1z17z4z1 <= 0
x17x107x1 - 2z17z107z1 <= 0
x17x182x1 - 2z17z182z1 <= 0
x17x156x1 - 2z17z156z1 <= 0
x17x23x1 - 2z17z23z1 <= 0
x17x112x1 - 1z17z112z1 <= 0
x17x131x1 - 2z17z131z1 <= 0
x17x36x1 - 2z17z36z1 <= 0
x17x77x1 - 1z17z77z1 <= 0
x17x22x1 - 1z17z22z1 <= 0
x17x65x1 - 1z17z65z1 <= 0
x46x37x2 - 2z46z37z2 <= 0
x46x177x2 - 2z46z177z2 <= 0
x46x112x2 - 1z46z112z2 <= 0
x46x183x2 - 1z46z183z2 <= 0
x46x77x2 - 1z46z77z2 <= 0
x175x85x1 - 1z175z85z1 <= 0
x175x4x1 - 1z175z4z1 <= 0
x175x107x1 - 2z175z107z1 <= 0
x175x182x1 - 2z175z182z1 <= 0
x175x156x1 - 2z175z156z1 <= 0
x175x37x2 - 2z175z37z2 <= 0
x175x23x1 - 2z175z23z1 <= 0
x175x177x2 - 2z175z177z2 <= 0
x175x112x1 - 1z175z112z1 <= 0
x175x112x2 - 1z175z112z2 <= 0
x175x183x2 - 1z175z183z2 <= 0
x175x131x1 - 2z175z131z1 <= 0
x175x36x1 - 2z175z36z1 <= 0
x175x77x1 - 1z175z77z1 <= 0
x175x77x2 - 1z175z77z2 <= 0
x175x22x1 - 1z175z22z1 <= 0
x175x65x1 - 1z175z65z1 <= 0
x138x85x1 - 1z138z85z1 <= 0
x138x85x3 - 1z138z85z3 <= 0
x138x4x1 - 1z138z4z1 <= 0
x138x4x3 - 1z138z4z3 <= 0
x138x8x3 - 2z138z8z3 <= 0
x138x30x3 - 2z138z30z3 <= 0
x138x107x1 - 2z138z107z1 <= 0
x138x182x1 - 2z138z182z1 <= 0
x138x156x1 - 2z138z156z1 <= 0
x138x109x3 - 2z138z109z3 <= 0
x138x31x3 - 2z138z31z3 <= 0
x138x23x1 - 2z138z23z1 <= 0
x138x112x1 - 1z138z112z1 <= 0
x138x183x3 - 1z138z183z3 <= 0
x138x131x1 - 2z138z131z1 <= 0
x138x36x1 - 2z138z36z1 <= 0
x138x77x1 - 1z138z77z1 <= 0
x138x22x1 - 1z138z22z1 <= 0
x138x22x3 - 1z138z22z3 <= 0
x138x65x1 - 1z138z65z1 <= 0
x138x65x3 - 1z138z65z3 <= 0
x70x37x2 - 2z70z37z2 <= 0
x70x177x2 - 2z70z177z2 <= 0
x70x112x2 - 1z70z112z2 <= 0
x70x183x2 - 1z70z183z2 <= 0
x70x77x2 - 1z70z77z2 <= 0
x106x141x1 - 2z106z141z1 <= 0
x106x14x1 - 2z106z14z1 <= 0
x106x85x1 - 1z106z85z1 <= 0
x106x85x3 - 1z106z85z3 <= 0
x106x4x1 - 1z106z4z1 <= 0
x106x4x3 - 1z106z4z3 <= 0
x106x8x3 - 2z106z8z3 <= 0
x106x30x3 - 2z106z30z3 <= 0
x106x107x1 - 2z106z107z1 <= 0
x106x182x1 - 2z106z182z1 <= 0
x106x156x1 - 2z106z156z1 <= 0
x106x109x3 - 2z106z109z3 <= 0
x106x31x3 - 2z106z31z3 <= 0
x106x23x1 - 2z106z23z1 <= 0
x106x112x1 - 1z106z112z1 <= 0
x106x183x3 - 1z106z183z3 <= 0
x106x131x1 - 2z106z131z1 <= 0
x106x36x1 - 2z106z36z1 <= 0
x106x77x1 - 1z106z77z1 <= 0
x106x22x1 - 1z106z22z1 <= 0
x106x22x3 - 1z106z22z3 <= 0
x106x65x1 - 1z106z65z1 <= 0
x106x65x3 - 1z106z65z3 <= 0
x99x99x3 - 2z99z99z3 <= 0
x99x118x3 - 1z99z118z3 <= 0
x99x133x3 - 2z99z133z3 <= 0
x99x85x3 - 1z99z85z3 <= 0
x99x4x3 - 1z99z4z3 <= 0
x99x8x3 - 2z99z8z3 <= 0
x99x30x3 - 2z99z30z3 <= 0
x99x109x3 - 2z99z109z3 <= 0
x99x31x3 - 2z99z31z3 <= 0
x99x183x3 - 1z99z183z3 <= 0
x99x22x3 - 1z99z22z3 <= 0
x99x65x3 - 1z99z65z3 <= 0
x150x133x3 - 2z150z133z3 <= 0
x150x85x3 - 1z150z85z3 <= 0
x150x4x3 - 1z150z4z3 <= 0
x150x8x3 - 2z150z8z3 <= 0
x150x30x3 - 2z150z30z3 <= 0
x150x37x2 - 2z150z37z2 <= 0
x150x109x3 - 2z150z109z3 <= 0
x150x31x3 - 2z150z31z3 <= 0
x150x177x2 - 2z150z177z2 <= 0
x150x112x2 - 1z150z112z2 <= 0
x150x183x2 - 1z150z183z2 <= 0
x150x183x3 - 1z150z183z3 <= 0
x150x77x2 - 1z150z77z2 <= 0
x150x22x3 - 1z150z22z3 <= 0
x150x65x3 - 1z150z65z3 <= 0
x118x133x3 - 2z118z133z3 <= 0
x118x141x1 - 2z118z141z1 <= 0
x118x14x1 - 2z118z14z1 <= 0
x118x85x1 - 1z118z85z1 <= 0
x118x85x3 - 1z118z85z3 <= 0
x118x4x1 - 1z118z4z1 <= 0
x118x4x3 - 1z118z4z3 <= 0
x118x8x3 - 2z118z8z3 <= 0
x118x30x3 - 2z118z30z3 <= 0
x118x107x1 - 2z118z107z1 <= 0
x118x182x1 - 2z118z182z1 <= 0
x118x156x1 - 2z118z156z1 <= 0
x118x109x3 - 2z118z109z3 <= 0
x118x31x3 - 2z118z31z3 <= 0
x118x23x1 - 2z118z23z1 <= 0
x118x112x1 - 1z118z112z1 <= 0
x118x183x3 - 1z118z183z3 <= 0
x118x131x1 - 2z118z131z1 <= 0
x118x36x1 - 2z118z36z1 <= 0
x118x77x1 - 1z118z77z1 <= 0
x118x22x1 - 1z118z22z1 <= 0
x118x22x3 - 1z118z22z3 <= 0
x118x65x1 - 1z118z65z1 <= 0
x118x65x3 - 1z118z65z3 <= 0
x99x85x3 - 1z99z85z3 <= 0
x99x4x3 - 1z99z4z3 <= 0
x99x8x3 - 2z99z8z3 <= 0
x99x30x3 - 2z99z30z3 <= 0
x99x109x3 - 2z99z109z3 <= 0
x99x31x3 - 2z99z31z3 <= 0
x99x183x3 - 1z99z183z3 <= 0
x99x22x3 - 1z99z22z3 <= 0
x99x65x3 - 1z99z65z3 <= 0
x99x0x3 <= 2
x118x141x1 - 2z118z141z1 <= 0
x118x14x1 - 2z118z14z1 <= 0
x118x85x1 - 1z118z85z1 <= 0
x118x85x3 - 1z118z85z3 <= 0
x118x4x1 - 1z118z4z1 <= 0
x118x4x3 - 1z118z4z3 <= 0
x118x8x3 - 2z118z8z3 <= 0
x118x30x3 - 2z118z30z3 <= 0
x118x107x1 - 2z118z107z1 <= 0
x118x182x1 - 2z118z182z1 <= 0
x118x156x1 - 2z118z156z1 <= 0
x118x109x3 - 2z118z109z3 <= 0
x118x31x3 - 2z118z31z3 <= 0
x118x23x1 - 2z118z23z1 <= 0
x118x112x1 - 1z118z112z1 <= 0
x118x183x3 - 1z118z183z3 <= 0
x118x131x1 - 2z118z131z1 <= 0
x118x36x1 - 2z118z36z1 <= 0
x118x77x1 - 1z118z77z1 <= 0
x118x22x1 - 1z118z22z1 <= 0
x118x22x3 - 1z118z22z3 <= 0
x118x65x1 - 1z118z65z1 <= 0
x118x65x3 - 1z118z65z3 <= 0
x118x0x1 <= 1
x118x0x3 <= 1
x158x85x1 - 1z158z85z1 <= 0
x158x4x1 - 1z158z4z1 <= 0
x158x107x1 - 2z158z107z1 <= 0
x158x182x1 - 2z158z182z1 <= 0
x158x156x1 - 2z158z156z1 <= 0
x158x23x1 - 2z158z23z1 <= 0
x158x112x1 - 1z158z112z1 <= 0
x158x131x1 - 2z158z131z1 <= 0
x158x36x1 - 2z158z36z1 <= 0
x158x77x1 - 1z158z77z1 <= 0
x158x22x1 - 1z158z22z1 <= 0
x158x65x1 - 1z158z65z1 <= 0
x158x0x1 <= 2
x133x85x3 - 1z133z85z3 <= 0
x133x4x3 - 1z133z4z3 <= 0
x133x8x3 - 2z133z8z3 <= 0
x133x30x3 - 2z133z30z3 <= 0
x133x109x3 - 2z133z109z3 <= 0
x133x31x3 - 2z133z31z3 <= 0
x133x183x3 - 1z133z183z3 <= 0
x133x22x3 - 1z133z22z3 <= 0
x133x65x3 - 1z133z65z3 <= 0
x133x0x3 <= 2
x141x85x1 - 1z141z85z1 <= 0
x141x4x1 - 1z141z4z1 <= 0
x141x107x1 - 2z141z107z1 <= 0
x141x182x1 - 2z141z182z1 <= 0
x141x156x1 - 2z141z156z1 <= 0
x141x23x1 - 2z141z23z1 <= 0
x141x112x1 - 1z141z112z1 <= 0
x141x131x1 - 2z141z131z1 <= 0
x141x36x1 - 2z141z36z1 <= 0
x141x77x1 - 1z141z77z1 <= 0
x141x22x1 - 1z141z22z1 <= 0
x141x65x1 - 1z141z65z1 <= 0
x141x0x1 <= 2
x14x4x1 - 1z14z4z1 <= 0
x14x107x1 - 2z14z107z1 <= 0
x14x182x1 - 2z14z182z1 <= 0
x14x156x1 - 2z14z156z1 <= 0
x14x23x1 - 2z14z23z1 <= 0
x14x112x1 - 1z14z112z1 <= 0
x14x131x1 - 2z14z131z1 <= 0
x14x36x1 - 2z14z36z1 <= 0
x14x77x1 - 1z14z77z1 <= 0
x14x22x1 - 1z14z22z1 <= 0
x14x65x1 - 1z14z65z1 <= 0
x14x0x1 <= 2
x85x30x3 - 2z85z30z3 <= 0
x85x107x1 - 2z85z107z1 <= 0
x85x182x1 - 2z85z182z1 <= 0
x85x156x1 - 2z85z156z1 <= 0
x85x109x3 - 2z85z109z3 <= 0
x85x31x3 - 2z85z31z3 <= 0
x85x23x1 - 2z85z23z1 <= 0
x85x112x1 - 1z85z112z1 <= 0
x85x183x3 - 1z85z183z3 <= 0
x85x131x1 - 2z85z131z1 <= 0
x85x36x1 - 2z85z36z1 <= 0
x85x77x1 - 1z85z77z1 <= 0
x85x22x1 - 1z85z22z1 <= 0
x85x22x3 - 1z85z22z3 <= 0
x85x65x1 - 1z85z65z1 <= 0
x85x65x3 - 1z85z65z3 <= 0
x85x0x1 <= 1
x85x0x3 <= 1
x4x8x3 - 2z4z8z3 <= 0
x4x30x3 - 2z4z30z3 <= 0
x4x107x1 - 2z4z107z1 <= 0
x4x182x1 - 2z4z182z1 <= 0
x4x156x1 - 2z4z156z1 <= 0
x4x109x3 - 2z4z109z3 <= 0
x4x31x3 - 2z4z31z3 <= 0
x4x23x1 - 2z4z23z1 <= 0
x4x112x1 - 1z4z112z1 <= 0
x4x183x3 - 1z4z183z3 <= 0
x4x131x1 - 2z4z131z1 <= 0
x4x36x1 - 2z4z36z1 <= 0
x4x77x1 - 1z4z77z1 <= 0
x4x22x1 - 1z4z22z1 <= 0
x4x22x3 - 1z4z22z3 <= 0
x4x65x1 - 1z4z65z1 <= 0
x4x65x3 - 1z4z65z3 <= 0
x4x0x1 <= 1
x4x0x3 <= 1
x8x109x3 - 2z8z109z3 <= 0
x8x31x3 - 2z8z31z3 <= 0
x8x183x3 - 1z8z183z3 <= 0
x8x22x3 - 1z8z22z3 <= 0
x8x65x3 - 1z8z65z3 <= 0
x8x0x3 <= 2
x30x109x3 - 2z30z109z3 <= 0
x30x31x3 - 2z30z31z3 <= 0
x30x183x3 - 1z30z183z3 <= 0
x30x22x3 - 1z30z22z3 <= 0
x30x65x3 - 1z30z65z3 <= 0
x30x0x3 <= 2
x107x182x1 - 2z107z182z1 <= 0
x107x23x1 - 2z107z23z1 <= 0
x107x112x1 - 1z107z112z1 <= 0
x107x131x1 - 2z107z131z1 <= 0
x107x36x1 - 2z107z36z1 <= 0
x107x77x1 - 1z107z77z1 <= 0
x107x22x1 - 1z107z22z1 <= 0
x107x65x1 - 1z107z65z1 <= 0
x107x0x1 <= 2
x182x23x1 - 2z182z23z1 <= 0
x182x112x1 - 1z182z112z1 <= 0
x182x131x1 - 2z182z131z1 <= 0
x182x36x1 - 2z182z36z1 <= 0
x182x77x1 - 1z182z77z1 <= 0
x182x22x1 - 1z182z22z1 <= 0
x182x65x1 - 1z182z65z1 <= 0
x182x0x1 <= 2
x156x23x1 - 2z156z23z1 <= 0
x156x112x1 - 1z156z112z1 <= 0
x156x131x1 - 2z156z131z1 <= 0
x156x36x1 - 2z156z36z1 <= 0
x156x77x1 - 1z156z77z1 <= 0
x156x22x1 - 1z156z22z1 <= 0
x156x65x1 - 1z156z65z1 <= 0
x156x0x1 <= 2
x37x177x2 - 2z37z177z2 <= 0
x37x77x2 - 1z37z77z2 <= 0
x37x0x2 <= 2
x109x22x3 - 1z109z22z3 <= 0
x109x65x3 - 1z109z65z3 <= 0
x109x0x3 <= 2
x31x22x3 - 1z31z22z3 <= 0
x31x65x3 - 1z31z65z3 <= 0
x31x0x3 <= 2
x23x36x1 - 2z23z36z1 <= 0
x23x77x1 - 1z23z77z1 <= 0
x23x22x1 - 1z23z22z1 <= 0
x23x65x1 - 1z23z65z1 <= 0
x23x0x1 <= 2
x177x77x2 - 1z177z77z2 <= 0
x177x0x2 <= 2
x112x22x1 - 1z112z22z1 <= 0
x112x65x1 - 1z112z65z1 <= 0
x112x0x1 <= 1
x112x0x2 <= 1
x183x22x3 - 1z183z22z3 <= 0
x183x65x3 - 1z183z65z3 <= 0
x183x0x2 <= 1
x183x0x3 <= 1
x131x22x1 - 1z131z22z1 <= 0
x131x65x1 - 1z131z65z1 <= 0
x131x0x1 <= 2
x36x0x1 <= 2
x77x22x1 - 1z77z22z1 <= 0
x77x65x1 - 1z77z65z1 <= 0
x77x0x1 <= 1
x77x0x2 <= 1
x22x0x1 <= 1
x22x0x3 <= 1
x65x0x1 <= 1
x65x0x3 <= 1

Bounds
s17 = 5.175748
s46 = 5.438144
s175 = 5.972374
s138 = 5.983731
s70 = 5.765764
s106 = 5.895234
s99 = 5.350000
s150 = 5.655952
s118 = 5.813568
6.000000 <= s99 <= 6.350000
6.000000 <= s118 <= 6.620000
6.000000 <= s158 <= 6.080000
6.090000 <= s133 <= 7.090000
6.290000 <= s141 <= 7.290000
6.340000 <= s14 <= 7.340000
6.530000 <= s85 <= 7.530000
6.720000 <= s4 <= 7.720000
6.840000 <= s8 <= 7.840000
6.870000 <= s30 <= 7.870000
6.870000 <= s107 <= 7.870000
6.880000 <= s182 <= 7.880000
6.920000 <= s156 <= 7.920000
7.050000 <= s37 <= 8.050000
7.060000 <= s109 <= 8.060000
7.080000 <= s31 <= 8.080000
7.090000 <= s23 <= 8.090000
7.130000 <= s177 <= 8.130000
7.180000 <= s112 <= 8.180000
7.270000 <= s183 <= 8.270000
7.290000 <= s131 <= 8.290000
7.330000 <= s36 <= 8.330000
7.360000 <= s77 <= 8.360000
7.740000 <= s22 <= 8.740000
7.770000 <= s65 <= 8.770000

General
x17x141x1 x17x14x1 x17x85x1 x17x4x1 x17x107x1 x17x182x1 x17x156x1 x17x23x1 x17x112x1 x17x131x1 x17x36x1 x17x77x1 x17x22x1 x17x65x1 
x46x37x2 x46x177x2 x46x112x2 x46x183x2 x46x77x2 
x175x85x1 x175x4x1 x175x107x1 x175x182x1 x175x156x1 x175x37x2 x175x23x1 x175x177x2 x175x112x1 x175x112x2 x175x183x2 x175x131x1 x175x36x1 x175x77x1 x175x77x2 x175x22x1 x175x65x1 
x138x85x1 x138x85x3 x138x4x1 x138x4x3 x138x8x3 x138x30x3 x138x107x1 x138x182x1 x138x156x1 x138x109x3 x138x31x3 x138x23x1 x138x112x1 x138x183x3 x138x131x1 x138x36x1 x138x77x1 x138x22x1 x138x22x3 x138x65x1 x138x65x3 
x70x37x2 x70x177x2 x70x112x2 x70x183x2 x70x77x2 
x106x141x1 x106x14x1 x106x85x1 x106x85x3 x106x4x1 x106x4x3 x106x8x3 x106x30x3 x106x107x1 x106x182x1 x106x156x1 x106x109x3 x106x31x3 x106x23x1 x106x112x1 x106x183x3 x106x131x1 x106x36x1 x106x77x1 x106x22x1 x106x22x3 x106x65x1 x106x65x3 
x99x99x3 x99x118x3 x99x133x3 x99x85x3 x99x4x3 x99x8x3 x99x30x3 x99x109x3 x99x31x3 x99x183x3 x99x22x3 x99x65x3 
x150x133x3 x150x85x3 x150x4x3 x150x8x3 x150x30x3 x150x37x2 x150x109x3 x150x31x3 x150x177x2 x150x112x2 x150x183x2 x150x183x3 x150x77x2 x150x22x3 x150x65x3 
x118x133x3 x118x141x1 x118x14x1 x118x85x1 x118x85x3 x118x4x1 x118x4x3 x118x8x3 x118x30x3 x118x107x1 x118x182x1 x118x156x1 x118x109x3 x118x31x3 x118x23x1 x118x112x1 x118x183x3 x118x131x1 x118x36x1 x118x77x1 x118x22x1 x118x22x3 x118x65x1 x118x65x3 
x99x85x3 x99x4x3 x99x8x3 x99x30x3 x99x109x3 x99x31x3 x99x183x3 x99x22x3 x99x65x3 x99x0x3 
x118x141x1 x118x14x1 x118x85x1 x118x85x3 x118x4x1 x118x4x3 x118x8x3 x118x30x3 x118x107x1 x118x182x1 x118x156x1 x118x109x3 x118x31x3 x118x23x1 x118x112x1 x118x183x3 x118x131x1 x118x36x1 x118x77x1 x118x22x1 x118x22x3 x118x65x1 x118x65x3 x118x0x1 x118x0x3 
x158x85x1 x158x4x1 x158x107x1 x158x182x1 x158x156x1 x158x23x1 x158x112x1 x158x131x1 x158x36x1 x158x77x1 x158x22x1 x158x65x1 x158x0x1 
x133x85x3 x133x4x3 x133x8x3 x133x30x3 x133x109x3 x133x31x3 x133x183x3 x133x22x3 x133x65x3 x133x0x3 
x141x85x1 x141x4x1 x141x107x1 x141x182x1 x141x156x1 x141x23x1 x141x112x1 x141x131x1 x141x36x1 x141x77x1 x141x22x1 x141x65x1 x141x0x1 
x14x4x1 x14x107x1 x14x182x1 x14x156x1 x14x23x1 x14x112x1 x14x131x1 x14x36x1 x14x77x1 x14x22x1 x14x65x1 x14x0x1 
x85x30x3 x85x107x1 x85x182x1 x85x156x1 x85x109x3 x85x31x3 x85x23x1 x85x112x1 x85x183x3 x85x131x1 x85x36x1 x85x77x1 x85x22x1 x85x22x3 x85x65x1 x85x65x3 x85x0x1 x85x0x3 
x4x8x3 x4x30x3 x4x107x1 x4x182x1 x4x156x1 x4x109x3 x4x31x3 x4x23x1 x4x112x1 x4x183x3 x4x131x1 x4x36x1 x4x77x1 x4x22x1 x4x22x3 x4x65x1 x4x65x3 x4x0x1 x4x0x3 
x8x109x3 x8x31x3 x8x183x3 x8x22x3 x8x65x3 x8x0x3 
x30x109x3 x30x31x3 x30x183x3 x30x22x3 x30x65x3 x30x0x3 
x107x182x1 x107x23x1 x107x112x1 x107x131x1 x107x36x1 x107x77x1 x107x22x1 x107x65x1 x107x0x1 
x182x23x1 x182x112x1 x182x131x1 x182x36x1 x182x77x1 x182x22x1 x182x65x1 x182x0x1 
x156x23x1 x156x112x1 x156x131x1 x156x36x1 x156x77x1 x156x22x1 x156x65x1 x156x0x1 
x37x177x2 x37x77x2 x37x0x2 
x109x22x3 x109x65x3 x109x0x3 
x31x22x3 x31x65x3 x31x0x3 
x23x36x1 x23x77x1 x23x22x1 x23x65x1 x23x0x1 
x177x77x2 x177x0x2 
x112x22x1 x112x65x1 x112x0x1 x112x0x2 
x183x22x3 x183x65x3 x183x0x2 x183x0x3 
x131x22x1 x131x65x1 x131x0x1 
x36x0x1 
x77x22x1 x77x65x1 x77x0x1 x77x0x2 
x22x0x1 x22x0x3 
x65x0x1 x65x0x3 

Binaries
y99 y118 y158 y133 y141 y14 y85 y4 y8 y30 y107 y182 y156 y37 y109 y31 y23 y177 y112 y183 y131 y36 y77 y22 y65 
z17z141z1 z17z14z1 z17z85z1 z17z4z1 z17z107z1 z17z182z1 z17z156z1 z17z23z1 z17z112z1 z17z131z1 z17z36z1 z17z77z1 z17z22z1 z17z65z1 
z46z37z2 z46z177z2 z46z112z2 z46z183z2 z46z77z2 
z175z85z1 z175z4z1 z175z107z1 z175z182z1 z175z156z1 z175z37z2 z175z23z1 z175z177z2 z175z112z1 z175z112z2 z175z183z2 z175z131z1 z175z36z1 z175z77z1 z175z77z2 z175z22z1 z175z65z1 
z138z85z1 z138z85z3 z138z4z1 z138z4z3 z138z8z3 z138z30z3 z138z107z1 z138z182z1 z138z156z1 z138z109z3 z138z31z3 z138z23z1 z138z112z1 z138z183z3 z138z131z1 z138z36z1 z138z77z1 z138z22z1 z138z22z3 z138z65z1 z138z65z3 
z70z37z2 z70z177z2 z70z112z2 z70z183z2 z70z77z2 
z106z141z1 z106z14z1 z106z85z1 z106z85z3 z106z4z1 z106z4z3 z106z8z3 z106z30z3 z106z107z1 z106z182z1 z106z156z1 z106z109z3 z106z31z3 z106z23z1 z106z112z1 z106z183z3 z106z131z1 z106z36z1 z106z77z1 z106z22z1 z106z22z3 z106z65z1 z106z65z3 
z99z99z3 z99z118z3 z99z133z3 z99z85z3 z99z4z3 z99z8z3 z99z30z3 z99z109z3 z99z31z3 z99z183z3 z99z22z3 z99z65z3 
z150z133z3 z150z85z3 z150z4z3 z150z8z3 z150z30z3 z150z37z2 z150z109z3 z150z31z3 z150z177z2 z150z112z2 z150z183z2 z150z183z3 z150z77z2 z150z22z3 z150z65z3 
z118z133z3 z118z141z1 z118z14z1 z118z85z1 z118z85z3 z118z4z1 z118z4z3 z118z8z3 z118z30z3 z118z107z1 z118z182z1 z118z156z1 z118z109z3 z118z31z3 z118z23z1 z118z112z1 z118z183z3 z118z131z1 z118z36z1 z118z77z1 z118z22z1 z118z22z3 z118z65z1 z118z65z3 
z99z85z3 z99z4z3 z99z8z3 z99z30z3 z99z109z3 z99z31z3 z99z183z3 z99z22z3 z99z65z3 
z118z141z1 z118z14z1 z118z85z1 z118z85z3 z118z4z1 z118z4z3 z118z8z3 z118z30z3 z118z107z1 z118z182z1 z118z156z1 z118z109z3 z118z31z3 z118z23z1 z118z112z1 z118z183z3 z118z131z1 z118z36z1 z118z77z1 z118z22z1 z118z22z3 z118z65z1 z118z65z3 
z158z85z1 z158z4z1 z158z107z1 z158z182z1 z158z156z1 z158z23z1 z158z112z1 z158z131z1 z158z36z1 z158z77z1 z158z22z1 z158z65z1 
z133z85z3 z133z4z3 z133z8z3 z133z30z3 z133z109z3 z133z31z3 z133z183z3 z133z22z3 z133z65z3 
z141z85z1 z141z4z1 z141z107z1 z141z182z1 z141z156z1 z141z23z1 z141z112z1 z141z131z1 z141z36z1 z141z77z1 z141z22z1 z141z65z1 
z14z4z1 z14z107z1 z14z182z1 z14z156z1 z14z23z1 z14z112z1 z14z131z1 z14z36z1 z14z77z1 z14z22z1 z14z65z1 
z85z30z3 z85z107z1 z85z182z1 z85z156z1 z85z109z3 z85z31z3 z85z23z1 z85z112z1 z85z183z3 z85z131z1 z85z36z1 z85z77z1 z85z22z1 z85z22z3 z85z65z1 z85z65z3 
z4z8z3 z4z30z3 z4z107z1 z4z182z1 z4z156z1 z4z109z3 z4z31z3 z4z23z1 z4z112z1 z4z183z3 z4z131z1 z4z36z1 z4z77z1 z4z22z1 z4z22z3 z4z65z1 z4z65z3 
z8z109z3 z8z31z3 z8z183z3 z8z22z3 z8z65z3 
z30z109z3 z30z31z3 z30z183z3 z30z22z3 z30z65z3 
z107z182z1 z107z23z1 z107z112z1 z107z131z1 z107z36z1 z107z77z1 z107z22z1 z107z65z1 
z182z23z1 z182z112z1 z182z131z1 z182z36z1 z182z77z1 z182z22z1 z182z65z1 
z156z23z1 z156z112z1 z156z131z1 z156z36z1 z156z77z1 z156z22z1 z156z65z1 
z37z177z2 z37z77z2 
z109z22z3 z109z65z3 
z31z22z3 z31z65z3 
z23z36z1 z23z77z1 z23z22z1 z23z65z1 
z177z77z2 
z112z22z1 z112z65z1 
z183z22z3 z183z65z3 
z131z22z1 z131z65z1 

z77z22z1 z77z65z1 



End